n = 5;
m = 5;
p = [53, 12, 23, 90, 10];

c =
[| 3, 1, 2, 4, 4, 
 | 4, 2, 4, 1, 5, 
 | 5, 1, 2, 1, 5, 
 | 2, 5, 2, 2, 5, 
 | 1, 2, 1, 2, 3
 |];

h =
[| 44, 4, 8, 5, 10, 
 | 43, 3, 11, 31, 7, 
 | 36, 4, 7, 71, 9, 
 | 38, 3, 8, 60, 2, 
 | 42, 1, 17, 28, 3
 |];

h_p = [27, 84, 66, 43, 22];

